80 14068774
11 50 1 32 53 51 68 27 78 18 21 14 70 80 75 73 2 65 12 56 16 72 79 4 64 13 41 19 49 31 17 67 45 48 60 62 63 38 25 54 39 15 7 44 37 59 57 61 35 71 77 24 55 22 26 40 3 34 23 20 29 33 47 66 30 5 36 10 74 52 6 43 28 76 8 69 42 46 9 58 
